NAME:10010
COMMENT: From "On the generation of Metric TSP instances with a large integrality gap by branch-and-cut" (Vercesi, Gualandi, Mastrolilli, Gambardella) - https://arxiv.org/abs/2109.02454
TYPE: TSP
DIMENSION: 10
EDGE_WEIGHT_TYPE: EXPLICIT
EDGE_WEIGHT_FORMAT: UPPER_ROW
EDGE_WEIGHT_SECTION
300 101 33 234 167 99 66 133 167 333 267 200 267 201 234 167 133 134 133 66 200 167 234 200 201 200 66 33 100 200 67 135 168 101 333 134 167 168 266 33 34 266 67 233 300 
EOF